0 4241
2 4240
4 4215
8 4208
10 4139
12 4130
14 4092
18 4072
21 4070
26 4021
27 4009
41 3973
42 3945
55 3941
59 3929
62 3901
64 3878
75 3871
84 3868
97 3867
98 3859
105 3842
124 3831
132 3830
151 3815
183 3806
200 3805
215 3794
217 3778
227 3777
240 3773
250 3769
252 3751
255 3749
262 3746
293 3723
303 3714
306 3707
331 3699
441 3692
475 3679
628 3675
663 3666
791 3663
827 3659
836 3656
841 3649
852 3646
1173 3642
1261 3640
1271 3639
1408 3638
1491 3618
1496 3609
1533 3601
1633 3600
2324 3598
2407 3590
2704 3580
2963 3579
3102 3572
3162 3570
4230 3566
4411 3565
4623 3555
5880 3553
6542 3544
6717 3542
6739 3540
6764 3537
6814 3535
6817 3527
6882 3526
6916 3522
6942 3517
7336 3515
7350 3507
7527 3505
8654 3504
9183 3501
9567 3500
9878 3498
10470 3497
10950 3493
11155 3492
11231 3487
12024 3486
12040 3480
13600 3477
15021 3475
15152 3471
